(set-logic QF_S)
(declare-fun var_0xINPUT_49980 () String)
(assert (and (= (len var_0xINPUT_49980) 0) (= (len var_0xINPUT_49980) 0) (not (= var_0xINPUT_49980 "K9BOAGJDFi"))))
(check-sat var_0xINPUT_49980)